p cnf 100  35
 30 -19 -3 0
89 31 -42 0
1 10 38 0
2 -21 -98 0
36 56 -78 0
14 -59 -87 0
89 -75 -86 0
-20 -80 4 0
-63 90 -55 0
59 75 9 0
-5 31 -97 0
48 -35 58 0
28 84 16 0
65 -4 94 0
-72 -23 7 0
18 -64 -55 0
-96 3 -35 0
89 -65 83 0
-8 -60 -28 0
34 50 -14 0
64 -47 -35 0
-19 57 93 0
52 99 -94 0
-59 10 48 0
-78 -44 76 0
-63 -48 52 0
-88 84 -68 0
10 88 -76 0
92 -81 -88 0
66 44 42 0
-36 -56 78 0
-78 56 0
78 -56 0
-78 -56 0
78 56 0